$molecule
0 1
__geom__
$end

$rem
  JOBTYPE         force
  METHOD          B3LYP
  BASIS           6-31G*
  MAX_SCF_CYCLES  100
  SYM_IGNORE      true
$end
