$molecule
0 1
__geom__
$end

$rem
  JOBTYPE         force

  METHOD          B3LYP
  BASIS           6-31G*

  RPA             true
  CIS_N_ROOTS     3
  CIS_STATE_DERIV 2

  MAX_SCF_CYCLES  100
  MAX_CIS_CYCLES  100
  SYM_IGNORE      true
$end
